361,243
702,385
830,700
858,753
1020,652
894,514
875,547
826,511
708,321
736,235
681,136
470,115
196,563
237,336
504,434
444,443
435,745
427,660
644,520
708,459
926,887
980,818
888,438
611,-38
657,389
621,406
880,342
1081,202
994,305
